Route #1: 3 48 33 19 35 10 40 36 5
Route #2: 2 34 39 18
Route #3: 20 1 9 49 44 15 23
Route #4: 6 7 43 26 28 4 11
Route #5: 46 22 24 30 25 47 45 50 21
Route #6: 41 32 37 27 31 12 8
Route #7: 38 16 13 42 14 29 17
cost 1124.6229248046875